(set-info :source |printed by MathSAT|)
(declare-fun call_synapse.ite8.next () Int)
(declare-fun call_synapse.ite12.next () Int)
(declare-fun call_synapse.ite10 () Int)
(declare-fun call_First.First () Int)
(declare-fun call_First.flby.next () Int)
(declare-fun call_synapse.invalid_s () Int)
(declare-fun valid_s () Int)
(declare-fun call_synapse.mem_init_s.next () Int)
(declare-fun call_synapse.ite15.next () Int)
(declare-fun param_e_s1.next () Bool)
(declare-fun call_synapse.flby () Int)
(declare-fun param_e_s2 () Bool)
(declare-fun call_synapse.ite2.next () Int)
(declare-fun call_synapse.flby4 () Int)
(declare-fun call_synapse.ite13 () Int)
(declare-fun call_synapse.dirty_s () Int)
(declare-fun param_init_invalid_s.next () Int)
(declare-fun call_synapse.ite () Int)
(declare-fun call_synapse.flby3.next () Int)
(declare-fun param_e_s3 () Bool)
(declare-fun call_synapse.valid_s.next () Int)
(declare-fun call_First.flby () Int)
(declare-fun mem_init_s () Int)
(declare-fun call_synapse.ite11 () Int)
(declare-fun invalid_s.next () Int)
(declare-fun _OK_ () Bool)
(declare-fun call_synapse.ite12 () Int)
(declare-fun call_synapse.ite6.next () Int)
(declare-fun call_excludes3.excludes () Bool)
(declare-fun dirty_s.next () Int)
(declare-fun dirty_s () Int)
(declare-fun call_synapse.ite3.next () Int)
(declare-fun call_synapse.garde_s3.next () Bool)
(declare-fun call_synapse.ite2 () Int)
(declare-fun call_synapse.ite7 () Int)
(declare-fun call_synapse.ite5 () Int)
(declare-fun call_Sofar.Sofar.next () Bool)
(declare-fun call_synapse.flby2 () Int)
(declare-fun call_synapse.ite11.next () Int)
(declare-fun _OK_.next () Bool)
(declare-fun env.next () Bool)
(declare-fun call_synapse.ite5.next () Int)
(declare-fun call_excludes3.excludes.next () Bool)
(declare-fun call_synapse.ite.next () Int)
(declare-fun call_synapse.ite17.next () Int)
(declare-fun call_synapse.flby3 () Int)
(declare-fun call_synapse.ite6 () Int)
(declare-fun call_synapse.ite14.next () Int)
(declare-fun call_synapse.ite9.next () Int)
(declare-fun call_synapse.valid_s () Int)
(declare-fun env () Bool)
(declare-fun call_synapse.ite18.next () Int)
(declare-fun call_synapse.ite4.next () Int)
(declare-fun call_synapse.ite13.next () Int)
(declare-fun call_synapse.ite16 () Int)
(declare-fun call_synapse.ite4 () Int)
(declare-fun mem_init_s.next () Int)
(declare-fun call_Sofar.Sofar () Bool)
(declare-fun call_synapse.ite16.next () Int)
(declare-fun call_synapse.ite17 () Int)
(declare-fun call_synapse.ite14 () Int)
(declare-fun call_synapse.garde_s1.next () Bool)
(declare-fun param_e_s3.next () Bool)
(declare-fun call_synapse.ite8 () Int)
(declare-fun call_synapse.ite7.next () Int)
(declare-fun call_synapse.flby.next () Int)
(declare-fun param_e_s2.next () Bool)
(declare-fun invalid_s () Int)
(declare-fun call_synapse.flby4.next () Int)
(declare-fun call_synapse.ite18 () Int)
(declare-fun param_e_s1 () Bool)
(declare-fun call_First.First.next () Int)
(declare-fun call_synapse.mem_init_s () Int)
(declare-fun flby () Bool)
(declare-fun call_synapse.flby2.next () Int)
(declare-fun call_Sofar.flby.next () Bool)
(declare-fun call_Sofar.flby () Bool)
(declare-fun valid_s.next () Int)
(declare-fun call_synapse.dirty_s.next () Int)
(declare-fun call_synapse.ite10.next () Int)
(declare-fun flby.next () Bool)
(declare-fun call_synapse.garde_s2.next () Bool)
(declare-fun call_synapse.invalid_s.next () Int)
(define-fun .def_912 () Bool (= call_First.flby.next call_First.First.next))
(define-fun .def_910 () Bool (= call_Sofar.flby.next call_Sofar.Sofar.next))
(define-fun .def_905 () Bool (and param_e_s3.next param_e_s2.next))
(define-fun .def_903 () Bool (and param_e_s3.next param_e_s1.next))
(define-fun .def_902 () Bool (and param_e_s1.next param_e_s2.next))
(define-fun .def_904 () Bool (or .def_902 .def_903))
(define-fun .def_906 () Bool (or .def_904 .def_905))
(define-fun .def_907 () Bool (not .def_906))
(define-fun .def_908 () Bool (= call_excludes3.excludes.next .def_907))
(define-fun .def_900 () Bool (= call_synapse.flby.next call_synapse.mem_init_s.next))
(define-fun .def_898 () Bool (= call_synapse.flby4.next call_synapse.dirty_s.next))
(define-fun .def_896 () Bool (= call_synapse.flby3.next call_synapse.valid_s.next))
(define-fun .def_894 () Bool (= call_synapse.flby2.next call_synapse.invalid_s.next))
(define-fun .def_890 () Bool (= call_synapse.ite16.next call_synapse.ite17.next))
(define-fun .def_891 () Bool (or param_e_s2.next .def_890))
(define-fun .def_887 () Bool (= call_synapse.ite14.next call_synapse.ite17.next))
(define-fun .def_878 () Bool (not param_e_s2.next))
(define-fun .def_888 () Bool (or .def_878 .def_887))
(define-fun .def_884 () Bool (= call_synapse.ite10.next call_synapse.ite11.next))
(define-fun .def_885 () Bool (or param_e_s2.next .def_884))
(define-fun .def_881 () Bool (= call_synapse.ite8.next call_synapse.ite11.next))
(define-fun .def_882 () Bool (or .def_878 .def_881))
(define-fun .def_877 () Bool (= call_synapse.ite2.next call_synapse.ite5.next))
(define-fun .def_879 () Bool (or .def_877 .def_878))
(define-fun .def_874 () Bool (= call_synapse.ite4.next call_synapse.ite5.next))
(define-fun .def_876 () Bool (or .def_874 param_e_s2.next))
(define-fun .def_880 () Bool (and .def_876 .def_879))
(define-fun .def_883 () Bool (and .def_880 .def_882))
(define-fun .def_886 () Bool (and .def_883 .def_885))
(define-fun .def_889 () Bool (and .def_886 .def_888))
(define-fun .def_892 () Bool (and .def_889 .def_891))
(define-fun .def_870 () Bool (= call_synapse.ite18.next call_synapse.ite17.next))
(define-fun .def_871 () Bool (or param_e_s1.next .def_870))
(define-fun .def_866 () Bool (= call_synapse.ite13.next call_synapse.ite18.next))
(define-fun .def_856 () Bool (not param_e_s1.next))
(define-fun .def_867 () Bool (or .def_856 .def_866))
(define-fun .def_863 () Bool (= call_synapse.ite12.next call_synapse.ite11.next))
(define-fun .def_864 () Bool (or param_e_s1.next .def_863))
(define-fun .def_859 () Bool (= call_synapse.ite7.next call_synapse.ite12.next))
(define-fun .def_860 () Bool (or .def_856 .def_859))
(define-fun .def_855 () Bool (= call_synapse.ite.next call_synapse.ite6.next))
(define-fun .def_857 () Bool (or .def_855 .def_856))
(define-fun .def_852 () Bool (= call_synapse.ite6.next call_synapse.ite5.next))
(define-fun .def_854 () Bool (or .def_852 param_e_s1.next))
(define-fun .def_858 () Bool (and .def_854 .def_857))
(define-fun .def_861 () Bool (and .def_858 .def_860))
(define-fun .def_865 () Bool (and .def_861 .def_864))
(define-fun .def_868 () Bool (and .def_865 .def_867))
(define-fun .def_872 () Bool (and .def_868 .def_871))
(define-fun .def_849 () Bool (= env.next call_Sofar.Sofar.next))
(define-fun .def_846 () Bool (= mem_init_s.next call_synapse.mem_init_s.next))
(define-fun .def_842 () Bool (= dirty_s.next call_synapse.dirty_s.next))
(define-fun .def_839 () Bool (= valid_s.next call_synapse.valid_s.next))
(define-fun .def_836 () Bool (= invalid_s.next call_synapse.invalid_s.next))
(define-fun .def_826 () Int (* (- 1) call_First.First.next))
(define-fun .def_827 () Int (+ dirty_s.next .def_826))
(define-fun .def_828 () Int (+ valid_s.next .def_827))
(define-fun .def_829 () Int (+ invalid_s.next .def_828))
(define-fun .def_830 () Bool (= .def_829 0))
(define-fun .def_821 () Bool (<= 2 dirty_s.next))
(define-fun .def_822 () Bool (not .def_821))
(define-fun .def_823 () Bool (and flby.next .def_822))
(define-fun .def_831 () Bool (and .def_823 .def_830))
(define-fun .def_818 () Bool (<= 1 valid_s.next))
(define-fun .def_819 () Bool (not .def_818))
(define-fun .def_816 () Bool (<= 1 dirty_s.next))
(define-fun .def_817 () Bool (not .def_816))
(define-fun .def_820 () Bool (or .def_817 .def_819))
(define-fun .def_832 () Bool (and .def_820 .def_831))
(define-fun .def_815 () Bool (not env.next))
(define-fun .def_833 () Bool (or .def_815 .def_832))
(define-fun .def_834 () Bool (= _OK_.next .def_833))
(define-fun .def_837 () Bool (and .def_834 .def_836))
(define-fun .def_840 () Bool (and .def_837 .def_839))
(define-fun .def_843 () Bool (and .def_840 .def_842))
(define-fun .def_847 () Bool (and .def_843 .def_846))
(define-fun .def_850 () Bool (and .def_847 .def_849))
(define-fun .def_873 () Bool (and .def_850 .def_872))
(define-fun .def_893 () Bool (and .def_873 .def_892))
(define-fun .def_895 () Bool (and .def_893 .def_894))
(define-fun .def_897 () Bool (and .def_895 .def_896))
(define-fun .def_899 () Bool (and .def_897 .def_898))
(define-fun .def_901 () Bool (and .def_899 .def_900))
(define-fun .def_909 () Bool (and .def_901 .def_908))
(define-fun .def_911 () Bool (and .def_909 .def_910))
(define-fun .def_913 () Bool (and .def_911 .def_912))
(define-fun .def_642 () Bool (= call_First.flby call_First.First))
(define-fun .def_640 () Bool (= call_Sofar.flby call_Sofar.Sofar))
(define-fun .def_635 () Bool (and param_e_s3 param_e_s2))
(define-fun .def_633 () Bool (and param_e_s3 param_e_s1))
(define-fun .def_632 () Bool (and param_e_s1 param_e_s2))
(define-fun .def_634 () Bool (or .def_632 .def_633))
(define-fun .def_636 () Bool (or .def_634 .def_635))
(define-fun .def_637 () Bool (not .def_636))
(define-fun .def_638 () Bool (= call_excludes3.excludes .def_637))
(define-fun .def_630 () Bool (= call_synapse.flby call_synapse.mem_init_s))
(define-fun .def_628 () Bool (= call_synapse.flby4 call_synapse.dirty_s))
(define-fun .def_626 () Bool (= call_synapse.flby3 call_synapse.valid_s))
(define-fun .def_624 () Bool (= call_synapse.flby2 call_synapse.invalid_s))
(define-fun .def_620 () Bool (= call_synapse.ite16 call_synapse.ite17))
(define-fun .def_621 () Bool (or param_e_s2 .def_620))
(define-fun .def_617 () Bool (= call_synapse.ite14 call_synapse.ite17))
(define-fun .def_608 () Bool (not param_e_s2))
(define-fun .def_618 () Bool (or .def_608 .def_617))
(define-fun .def_614 () Bool (= call_synapse.ite10 call_synapse.ite11))
(define-fun .def_615 () Bool (or param_e_s2 .def_614))
(define-fun .def_611 () Bool (= call_synapse.ite8 call_synapse.ite11))
(define-fun .def_612 () Bool (or .def_608 .def_611))
(define-fun .def_607 () Bool (= call_synapse.ite5 call_synapse.ite2))
(define-fun .def_609 () Bool (or .def_607 .def_608))
(define-fun .def_603 () Bool (= call_synapse.ite4 call_synapse.ite5))
(define-fun .def_605 () Bool (or .def_603 param_e_s2))
(define-fun .def_610 () Bool (and .def_605 .def_609))
(define-fun .def_613 () Bool (and .def_610 .def_612))
(define-fun .def_616 () Bool (and .def_613 .def_615))
(define-fun .def_619 () Bool (and .def_616 .def_618))
(define-fun .def_622 () Bool (and .def_619 .def_621))
(define-fun .def_599 () Bool (= call_synapse.ite18 call_synapse.ite17))
(define-fun .def_600 () Bool (or param_e_s1 .def_599))
(define-fun .def_595 () Bool (= call_synapse.ite13 call_synapse.ite18))
(define-fun .def_582 () Bool (not param_e_s1))
(define-fun .def_596 () Bool (or .def_582 .def_595))
(define-fun .def_591 () Bool (= call_synapse.ite12 call_synapse.ite11))
(define-fun .def_592 () Bool (or param_e_s1 .def_591))
(define-fun .def_587 () Bool (= call_synapse.ite7 call_synapse.ite12))
(define-fun .def_588 () Bool (or .def_582 .def_587))
(define-fun .def_581 () Bool (= call_synapse.ite6 call_synapse.ite))
(define-fun .def_583 () Bool (or .def_581 .def_582))
(define-fun .def_577 () Bool (= call_synapse.ite6 call_synapse.ite5))
(define-fun .def_579 () Bool (or .def_577 param_e_s1))
(define-fun .def_584 () Bool (and .def_579 .def_583))
(define-fun .def_589 () Bool (and .def_584 .def_588))
(define-fun .def_593 () Bool (and .def_589 .def_592))
(define-fun .def_597 () Bool (and .def_593 .def_596))
(define-fun .def_601 () Bool (and .def_597 .def_600))
(define-fun .def_573 () Bool (= env call_Sofar.Sofar))
(define-fun .def_570 () Bool (= call_synapse.mem_init_s mem_init_s))
(define-fun .def_567 () Bool (= dirty_s call_synapse.dirty_s))
(define-fun .def_564 () Bool (= valid_s call_synapse.valid_s))
(define-fun .def_561 () Bool (= invalid_s call_synapse.invalid_s))
(define-fun .def_551 () Int (* (- 1) call_First.First))
(define-fun .def_552 () Int (+ invalid_s .def_551))
(define-fun .def_553 () Int (+ valid_s .def_552))
(define-fun .def_554 () Int (+ dirty_s .def_553))
(define-fun .def_555 () Bool (= .def_554 0))
(define-fun .def_540 () Bool (<= 2 dirty_s))
(define-fun .def_541 () Bool (not .def_540))
(define-fun .def_542 () Bool (and flby .def_541))
(define-fun .def_556 () Bool (and .def_542 .def_555))
(define-fun .def_537 () Bool (<= 1 valid_s))
(define-fun .def_538 () Bool (not .def_537))
(define-fun .def_534 () Bool (<= 1 dirty_s))
(define-fun .def_535 () Bool (not .def_534))
(define-fun .def_539 () Bool (or .def_535 .def_538))
(define-fun .def_557 () Bool (and .def_539 .def_556))
(define-fun .def_532 () Bool (not env))
(define-fun .def_558 () Bool (or .def_532 .def_557))
(define-fun .def_559 () Bool (= _OK_ .def_558))
(define-fun .def_562 () Bool (and .def_559 .def_561))
(define-fun .def_565 () Bool (and .def_562 .def_564))
(define-fun .def_568 () Bool (and .def_565 .def_567))
(define-fun .def_571 () Bool (and .def_568 .def_570))
(define-fun .def_574 () Bool (and .def_571 .def_573))
(define-fun .def_602 () Bool (and .def_574 .def_601))
(define-fun .def_623 () Bool (and .def_602 .def_622))
(define-fun .def_625 () Bool (and .def_623 .def_624))
(define-fun .def_627 () Bool (and .def_625 .def_626))
(define-fun .def_629 () Bool (and .def_627 .def_628))
(define-fun .def_631 () Bool (and .def_629 .def_630))
(define-fun .def_639 () Bool (and .def_631 .def_638))
(define-fun .def_641 () Bool (and .def_639 .def_640))
(define-fun .def_643 () Bool (and .def_641 .def_642))
(define-fun .def_914 () Bool (and .def_643 .def_913))
(define-fun .def_811 () Bool (= call_First.First call_First.flby.next))
(define-fun .def_803 () Bool (<= 0 param_init_invalid_s.next))
(define-fun .def_805 () Bool (and .def_803 call_excludes3.excludes.next))
(define-fun .def_806 () Bool (and call_Sofar.Sofar .def_805))
(define-fun .def_808 () Bool (= .def_806 call_Sofar.flby.next))
(define-fun .def_800 () Bool (= call_synapse.ite18.next call_synapse.flby4.next))
(define-fun .def_796 () Bool (= call_synapse.ite12.next call_synapse.flby3.next))
(define-fun .def_792 () Bool (= call_synapse.ite6.next call_synapse.flby2.next))
(define-fun .def_788 () Bool (= call_synapse.mem_init_s call_synapse.flby.next))
(define-fun .def_766 () Bool (<= 1 call_synapse.invalid_s))
(define-fun .def_784 () Bool (= call_synapse.garde_s3.next .def_766))
(define-fun .def_781 () Bool (= call_synapse.ite9.next 0))
(define-fun .def_730 () Bool (not call_synapse.garde_s3.next))
(define-fun .def_782 () Bool (or .def_730 .def_781))
(define-fun .def_779 () Bool (= call_synapse.ite15.next 1))
(define-fun .def_780 () Bool (or .def_730 .def_779))
(define-fun .def_783 () Bool (and .def_780 .def_782))
(define-fun .def_785 () Bool (and .def_783 .def_784))
(define-fun .def_775 () Bool (<= 1 call_synapse.valid_s))
(define-fun .def_776 () Bool (= call_synapse.garde_s2.next .def_775))
(define-fun .def_772 () Bool (= call_synapse.ite8.next 0))
(define-fun .def_715 () Bool (not call_synapse.garde_s2.next))
(define-fun .def_773 () Bool (or .def_715 .def_772))
(define-fun .def_770 () Bool (= call_synapse.ite14.next 1))
(define-fun .def_771 () Bool (or .def_715 .def_770))
(define-fun .def_774 () Bool (and .def_771 .def_773))
(define-fun .def_777 () Bool (and .def_774 .def_776))
(define-fun .def_767 () Bool (= call_synapse.garde_s1.next .def_766))
(define-fun .def_764 () Bool (= call_synapse.ite13.next 0))
(define-fun .def_702 () Bool (not call_synapse.garde_s1.next))
(define-fun .def_765 () Bool (or .def_702 .def_764))
(define-fun .def_768 () Bool (and .def_765 .def_767))
(define-fun .def_760 () Bool (= call_synapse.dirty_s call_synapse.ite15.next))
(define-fun .def_761 () Bool (or call_synapse.garde_s3.next .def_760))
(define-fun .def_757 () Bool (= call_synapse.dirty_s call_synapse.ite13.next))
(define-fun .def_758 () Bool (or call_synapse.garde_s1.next .def_757))
(define-fun .def_754 () Bool (= call_synapse.dirty_s call_synapse.ite14.next))
(define-fun .def_755 () Bool (or call_synapse.garde_s2.next .def_754))
(define-fun .def_759 () Bool (and .def_755 .def_758))
(define-fun .def_762 () Bool (and .def_759 .def_761))
(define-fun .def_749 () Bool (= call_synapse.valid_s call_synapse.ite9.next))
(define-fun .def_750 () Bool (or call_synapse.garde_s3.next .def_749))
(define-fun .def_746 () Bool (= call_synapse.valid_s call_synapse.ite8.next))
(define-fun .def_747 () Bool (or call_synapse.garde_s2.next .def_746))
(define-fun .def_740 () Int (* (- 1) call_synapse.ite7.next))
(define-fun .def_741 () Int (+ call_synapse.valid_s .def_740))
(define-fun .def_742 () Bool (= .def_741 (- 1)))
(define-fun .def_743 () Bool (or .def_702 .def_742))
(define-fun .def_738 () Bool (= call_synapse.valid_s call_synapse.ite7.next))
(define-fun .def_739 () Bool (or call_synapse.garde_s1.next .def_738))
(define-fun .def_744 () Bool (and .def_739 .def_743))
(define-fun .def_748 () Bool (and .def_744 .def_747))
(define-fun .def_751 () Bool (and .def_748 .def_750))
(define-fun .def_733 () Bool (= call_synapse.invalid_s call_synapse.ite3.next))
(define-fun .def_734 () Bool (or call_synapse.garde_s3.next .def_733))
(define-fun .def_721 () Int (* (- 1) call_synapse.ite3.next))
(define-fun .def_725 () Int (+ call_synapse.dirty_s .def_721))
(define-fun .def_726 () Int (+ call_synapse.valid_s .def_725))
(define-fun .def_727 () Int (+ call_synapse.invalid_s .def_726))
(define-fun .def_728 () Bool (= .def_727 1))
(define-fun .def_731 () Bool (or .def_728 .def_730))
(define-fun .def_718 () Bool (= call_synapse.invalid_s call_synapse.ite2.next))
(define-fun .def_719 () Bool (or call_synapse.garde_s2.next .def_718))
(define-fun .def_706 () Int (* (- 1) call_synapse.ite2.next))
(define-fun .def_710 () Int (+ call_synapse.dirty_s .def_706))
(define-fun .def_711 () Int (+ call_synapse.valid_s .def_710))
(define-fun .def_712 () Int (+ call_synapse.invalid_s .def_711))
(define-fun .def_713 () Bool (= .def_712 1))
(define-fun .def_716 () Bool (or .def_713 .def_715))
(define-fun .def_697 () Int (* (- 1) call_synapse.ite.next))
(define-fun .def_698 () Int (* (- 1) call_synapse.dirty_s))
(define-fun .def_699 () Int (+ .def_698 .def_697))
(define-fun .def_700 () Int (+ call_synapse.invalid_s .def_699))
(define-fun .def_701 () Bool (= .def_700 2))
(define-fun .def_703 () Bool (or .def_701 .def_702))
(define-fun .def_691 () Bool (= call_synapse.invalid_s call_synapse.ite.next))
(define-fun .def_693 () Bool (or .def_691 call_synapse.garde_s1.next))
(define-fun .def_704 () Bool (and .def_693 .def_703))
(define-fun .def_717 () Bool (and .def_704 .def_716))
(define-fun .def_720 () Bool (and .def_717 .def_719))
(define-fun .def_732 () Bool (and .def_720 .def_731))
(define-fun .def_735 () Bool (and .def_732 .def_734))
(define-fun .def_676 () Int (* (- 1) dirty_s.next))
(define-fun .def_673 () Int (* (- 1) valid_s.next))
(define-fun .def_681 () Int (+ .def_673 .def_676))
(define-fun .def_671 () Int (* (- 1) invalid_s.next))
(define-fun .def_682 () Int (+ .def_671 .def_681))
(define-fun .def_683 () Int (+ invalid_s .def_682))
(define-fun .def_684 () Int (+ valid_s .def_683))
(define-fun .def_685 () Int (+ dirty_s .def_684))
(define-fun .def_686 () Bool (= .def_685 0))
(define-fun .def_688 () Bool (= .def_686 flby.next))
(define-fun .def_667 () Bool (= call_synapse.dirty_s call_synapse.ite16.next))
(define-fun .def_668 () Bool (or param_e_s3.next .def_667))
(define-fun .def_664 () Bool (= call_synapse.ite15.next call_synapse.ite16.next))
(define-fun .def_651 () Bool (not param_e_s3.next))
(define-fun .def_665 () Bool (or .def_651 .def_664))
(define-fun .def_659 () Bool (= call_synapse.valid_s call_synapse.ite10.next))
(define-fun .def_660 () Bool (or param_e_s3.next .def_659))
(define-fun .def_656 () Bool (= call_synapse.ite9.next call_synapse.ite10.next))
(define-fun .def_657 () Bool (or .def_651 .def_656))
(define-fun .def_650 () Bool (= call_synapse.ite4.next call_synapse.ite3.next))
(define-fun .def_652 () Bool (or .def_650 .def_651))
(define-fun .def_646 () Bool (= call_synapse.invalid_s call_synapse.ite4.next))
(define-fun .def_648 () Bool (or .def_646 param_e_s3.next))
(define-fun .def_653 () Bool (and .def_648 .def_652))
(define-fun .def_658 () Bool (and .def_653 .def_657))
(define-fun .def_661 () Bool (and .def_658 .def_660))
(define-fun .def_666 () Bool (and .def_661 .def_665))
(define-fun .def_669 () Bool (and .def_666 .def_668))
(define-fun .def_689 () Bool (and .def_669 .def_688))
(define-fun .def_736 () Bool (and .def_689 .def_735))
(define-fun .def_752 () Bool (and .def_736 .def_751))
(define-fun .def_763 () Bool (and .def_752 .def_762))
(define-fun .def_769 () Bool (and .def_763 .def_768))
(define-fun .def_778 () Bool (and .def_769 .def_777))
(define-fun .def_786 () Bool (and .def_778 .def_785))
(define-fun .def_789 () Bool (and .def_786 .def_788))
(define-fun .def_793 () Bool (and .def_789 .def_792))
(define-fun .def_797 () Bool (and .def_793 .def_796))
(define-fun .def_801 () Bool (and .def_797 .def_800))
(define-fun .def_809 () Bool (and .def_801 .def_808))
(define-fun .def_812 () Bool (and .def_809 .def_811))
(define-fun .def_915 () Bool (and .def_812 .def_914))
(assert .def_915)
